; 
(set-info :status unknown)
(declare-fun node_0x7fffe88717b0 () (_ BitVec 1))
(declare-fun node_0x7fffe88706f0 () (_ BitVec 1))
(declare-fun gep_0x7fffe88c08d0 () (_ BitVec 64))
(declare-fun node_0x7fffe88bfec0 () (_ BitVec 64))
(declare-fun node_0x7fffe88c06e0 () (_ BitVec 64))
(declare-fun carg_node_0x7fffe886f170 () (_ BitVec 64))
(declare-fun add_0x7fffe88c04c0 () (_ BitVec 64))
(declare-fun node_0x7fffe88c02b0 () (_ BitVec 64))
(declare-fun mul_0x7fffe88c0120 () (_ BitVec 64))
(declare-fun node_0x7fffe88bfb20 () (_ BitVec 64))
(declare-fun zext_0x7fffe88bfcc0 () (_ BitVec 64))
(declare-fun node_0x7fffe88ae910 () (_ BitVec 32))
(declare-fun mul_0x7fffe88aeab0 () (_ BitVec 32))
(declare-fun node_0x7fffe88aad80 () (_ BitVec 32))
(declare-fun node_0x7fffe88ae540 () (_ BitVec 32))
(declare-fun add_0x7fffe88ae6e0 () (_ BitVec 32))
(declare-fun node_0x7fffe88ae170 () (_ BitVec 32))
(declare-fun ashr_0x7fffe88ae310 () (_ BitVec 32))
(declare-fun node_0x7fffe88adc60 () (_ BitVec 32))
(declare-fun add_0x7fffe88ade00 () (_ BitVec 32))
(declare-fun node_0x7fffe88ad750 () (_ BitVec 32))
(declare-fun mul_0x7fffe88ad8f0 () (_ BitVec 32))
(declare-fun carg_node_0x7fffe886f620 () (_ BitVec 32))
(declare-fun node_0x7fffe88ad3a0 () (_ BitVec 32))
(declare-fun mul_0x7fffe88ad520 () (_ BitVec 32))
(declare-fun node_0x7fffe88a6d10 () (_ BitVec 32))
(declare-fun node_0x7fffe88acf50 () (_ BitVec 32))
(declare-fun LdMem_0x7fffe88ad0d0 () (_ BitVec 32))
(declare-fun parg_node_0x1481d9b0 () (_ BitVec 32))
(declare-fun StMem_0x1481d840 () (_ BitVec 32))
(declare-fun R0x7fffe886ed60 () (_ BitVec 1))
(declare-fun node_0x7fffe88cb8a0 () (_ BitVec 64))
(declare-fun node_0x7fffe88723c0 () (_ BitVec 1))
(declare-fun node_0x7fffe8873060 () (_ BitVec 1))
(declare-fun node_0x7fffe8873f10 () (_ BitVec 1))
(declare-fun node_0x7fffe8874c30 () (_ BitVec 1))
(declare-fun node_0x7fffe88786c0 () (_ BitVec 1))
(declare-fun node_0x7fffe887a950 () (_ BitVec 1))
(declare-fun xor_0x7fffe889aba0 () (_ BitVec 1))
(declare-fun node_0x7fffe889a550 () (_ BitVec 1))
(declare-fun carg_node_0x7fffe886f900 () (_ BitVec 32))
(declare-fun ine_0x7fffe889a6f0 () (_ BitVec 1))
(declare-fun and_0x7fffe88abc90 () (_ BitVec 1))
(declare-fun ine_0x7fffe88ab830 () (_ BitVec 1))
(declare-fun node_0x7fffe88ab690 () (_ BitVec 1))
(declare-fun node_0x7fffe88ab1a0 () (_ BitVec 1))
(declare-fun ine_0x7fffe88ab340 () (_ BitVec 1))
(declare-fun ccso_node_0x7fffe88aeee0 () (_ BitVec 1))
(declare-fun ieq_0x7fffe88afd20 () (_ BitVec 1))
(declare-fun xor_0x7fffe88b04f0 () (_ BitVec 1))
(declare-fun node_0x7fffe88b0050 () (_ BitVec 1))
(declare-fun ccso_node_0x7fffe88af730 () (_ BitVec 32))
(declare-fun ine_0x7fffe88b01a0 () (_ BitVec 1))
(declare-fun node_0x7fffe88b0af0 () (_ BitVec 64))
(declare-fun islt_0x7fffe88b1230 () (_ BitVec 1))
(declare-fun node_0x7fffe88b07c0 () (_ BitVec 64))
(declare-fun islt_0x7fffe88b1690 () (_ BitVec 1))
(declare-fun islt_0x7fffe88bdf80 () (_ BitVec 1))
(declare-fun sext_0x7fffe88b08f0 () (_ BitVec 64))
(declare-fun udiv_0x7fffe88a6eb0 () (_ BitVec 32))
(declare-fun LdMem_0x7fffe88a58b0 () (_ BitVec 32))
(declare-fun node_0x7fffe88a6840 () (_ BitVec 32))
(declare-fun node_0x7fffe88a5ee0 () (_ BitVec 32))
(declare-fun sub_0x7fffe88a6080 () (_ BitVec 32))
(declare-fun node_0x7fffe88a5b30 () (_ BitVec 32))
(declare-fun add_0x7fffe88a5cb0 () (_ BitVec 32))
(declare-fun node_0x7fffe88a5730 () (_ BitVec 32))
(declare-fun node_0x7fffe88a4e10 () (_ BitVec 32))
(declare-fun sub_0x7fffe88a4f90 () (_ BitVec 32))
(declare-fun LdMem_0x7fffe88a4b40 () (_ BitVec 32))
(declare-fun node_0x7fffe88a49c0 () (_ BitVec 32))
(declare-fun node_0x7fffe88a3ec0 () (_ BitVec 32))
(declare-fun LdMem_0x7fffe889bdd0 () (_ BitVec 32))
(declare-fun parg_node_0x14819130 () (_ BitVec 32))
(declare-fun StMem_0x14819020 () (_ BitVec 32))
(declare-fun islt_0x7fffe88be3a0 () (_ BitVec 1))
(declare-fun sext_0x7fffe88b0c90 () (_ BitVec 64))
(declare-fun udiv_0x7fffe88aaf20 () (_ BitVec 32))
(declare-fun LdMem_0x7fffe88a98e0 () (_ BitVec 32))
(declare-fun node_0x7fffe88aa8b0 () (_ BitVec 32))
(declare-fun node_0x7fffe88a9f60 () (_ BitVec 32))
(declare-fun sub_0x7fffe88aa100 () (_ BitVec 32))
(declare-fun node_0x7fffe88a9bb0 () (_ BitVec 32))
(declare-fun add_0x7fffe88a9d30 () (_ BitVec 32))
(declare-fun node_0x7fffe88a9790 () (_ BitVec 32))
(declare-fun node_0x7fffe88a8e20 () (_ BitVec 32))
(declare-fun sub_0x7fffe88a8fa0 () (_ BitVec 32))
(declare-fun LdMem_0x7fffe88a8b50 () (_ BitVec 32))
(declare-fun node_0x7fffe88a89d0 () (_ BitVec 32))
(declare-fun node_0x7fffe88a8030 () (_ BitVec 32))
(declare-fun LdMem_0x7fffe889d280 () (_ BitVec 32))
(declare-fun parg_node_0x148193e0 () (_ BitVec 32))
(declare-fun StMem_0x148192d0 () (_ BitVec 32))
(declare-fun node_0x7fffe8880c80 () (_ BitVec 1))
(declare-fun and_0x7fffe88d5880 () (_ BitVec 1))
(declare-fun ine_0x7fffe88d5530 () (_ BitVec 1))
(declare-fun node_0x7fffe88d5390 () (_ BitVec 1))
(declare-fun node_0x7fffe88d4a80 () (_ BitVec 32))
(declare-fun udiv_0x7fffe88d4c20 () (_ BitVec 32))
(declare-fun LdMem_0x7fffe88d35f0 () (_ BitVec 32))
(declare-fun node_0x7fffe88d45b0 () (_ BitVec 32))
(declare-fun node_0x7fffe88d3c70 () (_ BitVec 32))
(declare-fun sub_0x7fffe88d3e10 () (_ BitVec 32))
(declare-fun node_0x7fffe88d38c0 () (_ BitVec 32))
(declare-fun add_0x7fffe88d3a40 () (_ BitVec 32))
(declare-fun node_0x7fffe88d3470 () (_ BitVec 32))
(declare-fun node_0x1482f7b0 () (_ BitVec 32))
(declare-fun StMem_0x1482f670 () (_ BitVec 32))
(declare-fun node_0x7fffe88d2b50 () (_ BitVec 32))
(declare-fun sub_0x7fffe88d2cd0 () (_ BitVec 32))
(declare-fun node_0x7fffe88d1d40 () (_ BitVec 32))
(declare-fun node_0x7fffe88d2700 () (_ BitVec 32))
(declare-fun LdMem_0x7fffe88d2880 () (_ BitVec 32))
(declare-fun node_0x1482f310 () (_ BitVec 32))
(declare-fun StMem_0x1482f1d0 () (_ BitVec 32))
(declare-fun node_0x7fffe88d4ea0 () (_ BitVec 1))
(declare-fun ine_0x7fffe88d5040 () (_ BitVec 1))
(declare-fun node_0x7fffe88d0a10 () (_ BitVec 32))
(declare-fun udiv_0x7fffe88d0bb0 () (_ BitVec 32))
(declare-fun LdMem_0x7fffe88cf560 () (_ BitVec 32))
(declare-fun node_0x7fffe88d0570 () (_ BitVec 32))
(declare-fun node_0x7fffe88cfbe0 () (_ BitVec 32))
(declare-fun sub_0x7fffe88cfd80 () (_ BitVec 32))
(declare-fun node_0x7fffe88cf830 () (_ BitVec 32))
(declare-fun add_0x7fffe88cf9b0 () (_ BitVec 32))
(declare-fun node_0x7fffe88cf3e0 () (_ BitVec 32))
(declare-fun node_0x1482ed20 () (_ BitVec 32))
(declare-fun StMem_0x1482ebe0 () (_ BitVec 32))
(declare-fun node_0x7fffe88ceac0 () (_ BitVec 32))
(declare-fun sub_0x7fffe88cec40 () (_ BitVec 32))
(declare-fun node_0x7fffe88cdca0 () (_ BitVec 32))
(declare-fun node_0x7fffe88ce670 () (_ BitVec 32))
(declare-fun LdMem_0x7fffe88ce7f0 () (_ BitVec 32))
(declare-fun node_0xc332d70 () (_ BitVec 32))
(declare-fun StMem_0x1482e840 () (_ BitVec 32))
(declare-fun node_0x14835100 () (_ BitVec 8))
(declare-fun parg_node_0x147d8c00_CS0x399dec8 () (_ BitVec 8))
(declare-fun LdMem_0x14834d30 () (_ BitVec 8))
(declare-fun pcso_node_0x1482cc70 () (_ BitVec 8))
(declare-fun StMem_0x1482ce20 () (_ BitVec 8))
(declare-fun parg_node_0x1481c8f0 () (_ BitVec 8))
(declare-fun StMem_0xc466810 () (_ BitVec 8))
(declare-fun R0x7fffe8871ce0 () (_ BitVec 1))
(declare-fun R0xc4e6850 () (_ BitVec 1))
(declare-fun and_0xc4eae30 () (_ BitVec 1))
(declare-fun R0xc4eaad0 () (_ BitVec 1))
(declare-fun R0xc4eb560 () (_ BitVec 1))
(declare-fun and_0xc4eb8b0 () (_ BitVec 1))
(declare-fun xor_0xc4eb290 () (_ BitVec 1))
(declare-fun R0xc4eb0b0 () (_ BitVec 1))
(declare-fun and_0x7fffe8872060 () (_ BitVec 1))
(declare-fun R0x7fffe88719c0 () (_ BitVec 1))
(declare-fun R0x7fffe8870a70 () (_ BitVec 1))
(declare-fun xor_0x7fffe8870c80 () (_ BitVec 1))
(declare-fun or_0xc4e6ad0 () (_ BitVec 1))
(declare-fun xor_0x7fffe887e860 () (_ BitVec 1))
(declare-fun R0x7fffe887e650 () (_ BitVec 1))
(declare-fun R0xc4e60c0 () (_ BitVec 1))
(declare-fun or_0xc4e6470 () (_ BitVec 1))
(declare-fun R0xc4e5980 () (_ BitVec 1))
(declare-fun R0xc4e2fe0 () (_ BitVec 1))
(declare-fun and_0xc4e33b0 () (_ BitVec 1))
(declare-fun xor_0x7fffe887ba30 () (_ BitVec 1))
(declare-fun R0x7fffe887b820 () (_ BitVec 1))
(declare-fun R0xc4e2720 () (_ BitVec 1))
(declare-fun and_0xc4e2ab0 () (_ BitVec 1))
(declare-fun xor_0x7fffe8873480 () (_ BitVec 1))
(declare-fun R0x7fffe8873270 () (_ BitVec 1))
(declare-fun R0xc4e2150 () (_ BitVec 1))
(declare-fun and_0xc4e2400 () (_ BitVec 1))
(declare-fun R0x7fffe88725d0 () (_ BitVec 1))
(declare-fun and_0xc4e5db0 () (_ BitVec 1))
(declare-fun xor_0x7fffe887c5e0 () (_ BitVec 1))
(declare-fun R0x7fffe887c3a0 () (_ BitVec 1))
(declare-fun R0xc4e5240 () (_ BitVec 1))
(declare-fun or_0xc4e5630 () (_ BitVec 1))
(declare-fun and_0xc4e4f30 () (_ BitVec 1))
(declare-fun R0xc4e4ae0 () (_ BitVec 1))
(declare-fun xor_0x7fffe88796c0 () (_ BitVec 1))
(declare-fun R0x7fffe8879480 () (_ BitVec 1))
(declare-fun R0xc4e4440 () (_ BitVec 1))
(declare-fun and_0xc4e4850 () (_ BitVec 1))
(declare-fun R0x7fffe8874e30 () (_ BitVec 1))
(declare-fun R0xc4e36c0 () (_ BitVec 1))
(declare-fun R0xc4e3d20 () (_ BitVec 1))
(declare-fun and_0xc4e4130 () (_ BitVec 1))
(declare-fun xor_0x7fffe8878b20 () (_ BitVec 1))
(declare-fun R0x7fffe8878910 () (_ BitVec 1))
(declare-fun and_0xc4e3a90 () (_ BitVec 1))
(declare-fun R0x7fffe8874110 () (_ BitVec 1))
(declare-fun node_0x14837df0 () (_ BitVec 8))
(declare-fun parg_node_0x147d6270_CS0x399dec8 () (_ BitVec 8))
(declare-fun LdMem_0x14837a80 () (_ BitVec 8))
(declare-fun parg_node_0x1481f830 () (_ BitVec 8))
(declare-fun StMem_0x1481f6c0 () (_ BitVec 8))
(declare-fun node_0x14836da0 () (_ BitVec 8))
(declare-fun parg_node_0x147d5d10_CS0x399dec8 () (_ BitVec 8))
(declare-fun LdMem_0x14836a30 () (_ BitVec 8))
(declare-fun parg_node_0x1481e610 () (_ BitVec 8))
(declare-fun StMem_0x1481e500 () (_ BitVec 8))
(declare-fun carg_node_0x7fffe886f480 () (_ BitVec 32))
(declare-fun carg_node_0x7fffe88f5680_CS0x399dec8 () (_ BitVec 32))
(declare-fun node_0x14838a40 () (_ BitVec 32))
(declare-fun parg_node_0x147d4540_CS0x399dec8 () (_ BitVec 32))
(declare-fun LdMem_0x148363b0 () (_ BitVec 32))
(declare-fun carg_node_0x7fffe88f5820_CS0x399dec8 () (_ BitVec 32))
(declare-fun node_0x14834b30 () (_ BitVec 8))
(declare-fun parg_node_0x147d67d0_CS0x399dec8 () (_ BitVec 8))
(declare-fun LdMem_0x14834760 () (_ BitVec 8))
(declare-fun pcso_node_0x1482c820 () (_ BitVec 8))
(declare-fun StMem_0x1482c9d0 () (_ BitVec 8))
(declare-fun parg_node_0x1481c3b0 () (_ BitVec 8))
(declare-fun StMem_0xc38b700 () (_ BitVec 8))
(declare-fun node_0x14835c40 () (_ BitVec 32))
(declare-fun parg_node_0x147d41a0_CS0x399dec8 () (_ BitVec 32))
(declare-fun LdMem_0x148358d0 () (_ BitVec 32))
(declare-fun node_0x148361b0 () (_ BitVec 32))
(declare-fun parg_node_0x147d2d50_CS0x399dec8 () (_ BitVec 32))
(declare-fun LdMem_0x14835e40 () (_ BitVec 32))
(declare-fun carg_node_0x7fffe88f5b00_CS0x399dec8 () (_ BitVec 32))
(declare-fun node_0x7fffe88cb620 () (_ BitVec 32))
(declare-fun carg_node_0x7fffe88f5480_CS0x399dec8 () (_ BitVec 32))
(declare-fun carg_node_0x7fffe886f2d0 () (_ BitVec 32))
(declare-fun sub_0x7fffe88c0de0 () (_ BitVec 32))
(declare-fun node_0x7fffe88c0c40 () (_ BitVec 32))
(declare-fun carg_node_0x7fffe88f5980_CS0x399dec8 () (_ BitVec 32))
(declare-fun carg_node_0x7fffe88f5320_CS0x399dec8 () (_ BitVec 64))
(assert
 (let (($x167 (= node_0x7fffe88717b0 (_ bv1 1))))
 (let (($x325 (not $x167)))
 (let (($x169 (= node_0x7fffe88706f0 (_ bv1 1))))
 (let (($x183 (not $x169)))
 (and $x183 $x325))))))
(assert
 (let (($x1688 (= node_0x7fffe88bfec0 gep_0x7fffe88c08d0)))
 (let (($x897 (= carg_node_0x7fffe886f170 (_ bv0 64))))
 (let (($x1862 (and (= gep_0x7fffe88c08d0 (ite $x897 (_ bv0 64) node_0x7fffe88c06e0)) (or $x897 (and (distinct node_0x7fffe88c06e0 (_ bv0 64)) true)))))
 (let (($x19176 (= node_0x7fffe88c06e0 add_0x7fffe88c04c0)))
 (let (($x299 (= add_0x7fffe88c04c0 (bvadd carg_node_0x7fffe886f170 node_0x7fffe88c02b0))))
 (let (($x666 (= node_0x7fffe88c02b0 mul_0x7fffe88c0120)))
 (let (($x19232 (or (or (= node_0x7fffe88bfb20 (_ bv0 64)) (= (_ bv8 64) (_ bv0 64))) (and (distinct mul_0x7fffe88c0120 (_ bv0 64)) true))))
 (let (($x19323 (and (= mul_0x7fffe88c0120 (bvmul node_0x7fffe88bfb20 (_ bv8 64))) $x19232)))
 (let (($x287 (= node_0x7fffe88bfb20 zext_0x7fffe88bfcc0)))
 (let (($x19153 (= zext_0x7fffe88bfcc0 ((_ zero_extend 32) node_0x7fffe88ae910))))
 (let (($x658 (= node_0x7fffe88ae910 mul_0x7fffe88aeab0)))
 (let (($x19148 (or (or (= node_0x7fffe88ae540 (_ bv0 32)) (= node_0x7fffe88aad80 (_ bv0 32))) (and (distinct mul_0x7fffe88aeab0 (_ bv0 32)) true))))
 (let (($x19320 (= mul_0x7fffe88aeab0 (bvmul node_0x7fffe88ae540 node_0x7fffe88aad80))))
 (let (($x18509 (and $x19320 $x19148)))
 (let (($x1798 (= node_0x7fffe88ae540 add_0x7fffe88ae6e0)))
 (let (($x19197 (= add_0x7fffe88ae6e0 (bvadd node_0x7fffe88ae170 (_ bv1 32)))))
 (let (($x1844 (= node_0x7fffe88ae170 ashr_0x7fffe88ae310)))
 (let (($x19343 (or (or (= node_0x7fffe88adc60 (_ bv0 32)) (bvsge (_ bv3 32) (_ bv10 32))) (and (distinct ashr_0x7fffe88ae310 (_ bv0 32)) true))))
 (let ((?x19360 (bvashr node_0x7fffe88adc60 (_ bv3 32))))
 (let (($x19149 (= ashr_0x7fffe88ae310 ?x19360)))
 (let (($x19152 (and $x19149 $x19343)))
 (let (($x522 (= node_0x7fffe88adc60 add_0x7fffe88ade00)))
 (let (($x19160 (= add_0x7fffe88ade00 (bvadd node_0x7fffe88ad750 (_ bv7 32)))))
 (let (($x1680 (= node_0x7fffe88ad750 mul_0x7fffe88ad8f0)))
 (let (($x19162 (= carg_node_0x7fffe886f620 (_ bv0 32))))
 (let (($x19136 (= node_0x7fffe88ad3a0 (_ bv0 32))))
 (let (($x19338 (or $x19136 $x19162)))
 (let (($x19369 (= mul_0x7fffe88ad8f0 (bvmul node_0x7fffe88ad3a0 carg_node_0x7fffe886f620))))
 (let (($x819 (and $x19369 (or $x19338 (and (distinct mul_0x7fffe88ad8f0 (_ bv0 32)) true)))))
 (let (($x1819 (= node_0x7fffe88ad3a0 mul_0x7fffe88ad520)))
 (let (($x1772 (or (or (= node_0x7fffe88acf50 (_ bv0 32)) (= node_0x7fffe88a6d10 (_ bv0 32))) (and (distinct mul_0x7fffe88ad520 (_ bv0 32)) true))))
 (let (($x1685 (= mul_0x7fffe88ad520 (bvmul node_0x7fffe88acf50 node_0x7fffe88a6d10))))
 (let (($x961 (and $x1685 $x1772)))
 (let (($x1693 (= node_0x7fffe88acf50 LdMem_0x7fffe88ad0d0)))
 (let (($x1670 (= StMem_0x1481d840 parg_node_0x1481d9b0)))
 (let (($x929 (= LdMem_0x7fffe88ad0d0 StMem_0x1481d840)))
 (let (($x1940 (not (= R0x7fffe886ed60 (_ bv1 1)))))
 (let (($x1939 (or $x1940 $x929)))
 (let (($x19351 (= node_0x7fffe88cb8a0 carg_node_0x7fffe886f170)))
 (let (($x1877 (= node_0x7fffe88cb8a0 node_0x7fffe88bfec0)))
 (let (($x556 (or $x1877 $x19351)))
 (let (($x167 (= node_0x7fffe88717b0 (_ bv1 1))))
 (let (($x325 (not $x167)))
 (let (($x169 (= node_0x7fffe88706f0 (_ bv1 1))))
 (let (($x183 (not $x169)))
 (let (($x1696 (and $x183 $x325)))
 (let (($x1768 (not $x1696)))
 (let (($x1669 (or $x1768 $x19351)))
 (let (($x186 (and $x167 $x183)))
 (let (($x288 (= node_0x7fffe88723c0 (_ bv1 1))))
 (let (($x339 (and $x288 $x186)))
 (let (($x347 (and (not (= node_0x7fffe8873060 (_ bv1 1))) $x339)))
 (let (($x327 (= node_0x7fffe8873f10 (_ bv1 1))))
 (let (($x365 (and $x327 $x347)))
 (let (($x364 (= node_0x7fffe8874c30 (_ bv1 1))))
 (let (($x380 (and $x364 $x365)))
 (let (($x393 (or (and (not $x364) $x365) (and (not (= node_0x7fffe88786c0 (_ bv1 1))) $x380))))
 (let (($x401 (and (not (= node_0x7fffe887a950 (_ bv1 1))) $x393)))
 (let (($x359 (not $x327)))
 (let (($x360 (and $x359 $x347)))
 (let (($x755 (or $x360 $x401)))
 (let (($x869 (not $x755)))
 (let (($x1900 (or $x869 $x1877)))
 (let (($x1841 (= node_0x7fffe88706f0 xor_0x7fffe889aba0)))
 (let (($x174 (= xor_0x7fffe889aba0 (bvxor node_0x7fffe889a550 (_ bv1 1)))))
 (let (($x181 (= ine_0x7fffe889a6f0 (ite (and (distinct carg_node_0x7fffe886f900 (_ bv0 32)) true) (_ bv1 1) (_ bv0 1)))))
 (let (($x1762 (= node_0x7fffe889a550 ine_0x7fffe889a6f0)))
 (let (($x1667 (= node_0x7fffe88717b0 and_0x7fffe88abc90)))
 (let (($x246 (= ine_0x7fffe88ab830 (ite (and (distinct node_0x7fffe88aad80 (_ bv0 32)) true) (_ bv1 1) (_ bv0 1)))))
 (let (($x1774 (= node_0x7fffe88ab690 ine_0x7fffe88ab830)))
 (let (($x192 (= and_0x7fffe88abc90 (bvand node_0x7fffe88ab1a0 node_0x7fffe88ab690))))
 (let (($x198 (= ine_0x7fffe88ab340 (ite (and (distinct node_0x7fffe88a6d10 (_ bv0 32)) true) (_ bv1 1) (_ bv0 1)))))
 (let (($x893 (= node_0x7fffe88ab1a0 ine_0x7fffe88ab340)))
 (let (($x345 (= ieq_0x7fffe88afd20 (ite (= ccso_node_0x7fffe88aeee0 (_ bv0 1)) (_ bv1 1) (_ bv0 1)))))
 (let (($x950 (= node_0x7fffe88723c0 ieq_0x7fffe88afd20)))
 (let (($x564 (= node_0x7fffe8873060 xor_0x7fffe88b04f0)))
 (let (($x352 (= xor_0x7fffe88b04f0 (bvxor node_0x7fffe88b0050 (_ bv1 1)))))
 (let (($x358 (= ine_0x7fffe88b01a0 (ite (and (distinct ccso_node_0x7fffe88af730 (_ bv0 32)) true) (_ bv1 1) (_ bv0 1)))))
 (let (($x1888 (= node_0x7fffe88b0050 ine_0x7fffe88b01a0)))
 (let (($x371 (= islt_0x7fffe88b1230 (ite (bvslt (_ bv0 64) node_0x7fffe88b0af0) (_ bv1 1) (_ bv0 1)))))
 (let (($x1822 (= node_0x7fffe8873f10 islt_0x7fffe88b1230)))
 (let ((?x385 (ite (bvslt (_ bv0 64) node_0x7fffe88b07c0) (_ bv1 1) (_ bv0 1))))
 (let (($x386 (= islt_0x7fffe88b1690 ?x385)))
 (let (($x32143 (= node_0x7fffe8874c30 islt_0x7fffe88b1690)))
 (let (($x32116 (= node_0x7fffe88786c0 islt_0x7fffe88bdf80)))
 (let (($x399 (= islt_0x7fffe88bdf80 (ite (bvslt (_ bv1 64) node_0x7fffe88b07c0) (_ bv1 1) (_ bv0 1)))))
 (let (($x32063 (= node_0x7fffe88b07c0 sext_0x7fffe88b08f0)))
 (let (($x390 (= sext_0x7fffe88b08f0 ((_ sign_extend 32) node_0x7fffe88a6d10))))
 (let (($x32056 (= node_0x7fffe88a6d10 udiv_0x7fffe88a6eb0)))
 (let (($x465 (= node_0x7fffe88a6840 LdMem_0x7fffe88a58b0)))
 (let (($x206 (= node_0x7fffe88a6840 (_ bv0 32))))
 (let (($x205 (= node_0x7fffe88a5ee0 (_ bv0 32))))
 (let (($x207 (or $x205 $x206)))
 (let (($x204 (= udiv_0x7fffe88a6eb0 (bvudiv node_0x7fffe88a5ee0 node_0x7fffe88a6840))))
 (let (($x210 (and $x204 (or $x207 (and (distinct udiv_0x7fffe88a6eb0 (_ bv0 32)) true)))))
 (let (($x32059 (= node_0x7fffe88a5ee0 sub_0x7fffe88a6080)))
 (let (($x216 (= sub_0x7fffe88a6080 (bvsub node_0x7fffe88a5b30 (_ bv1 32)))))
 (let (($x32061 (= node_0x7fffe88a5b30 add_0x7fffe88a5cb0)))
 (let (($x51237 (= node_0x7fffe88a5730 LdMem_0x7fffe88a58b0)))
 (let (($x222 (= add_0x7fffe88a5cb0 (bvadd node_0x7fffe88a4e10 node_0x7fffe88a5730))))
 (let (($x32094 (= node_0x7fffe88a4e10 sub_0x7fffe88a4f90)))
 (let (($x32074 (= node_0x7fffe88a49c0 LdMem_0x7fffe88a4b40)))
 (let (($x228 (= sub_0x7fffe88a4f90 (bvsub node_0x7fffe88a3ec0 node_0x7fffe88a49c0))))
 (let (($x32112 (= node_0x7fffe88a3ec0 LdMem_0x7fffe889bdd0)))
 (let (($x32052 (= StMem_0x14819020 parg_node_0x14819130)))
 (let (($x32040 (= LdMem_0x7fffe889bdd0 StMem_0x14819020)))
 (let (($x32053 (or $x1940 $x32040)))
 (let (($x32060 (= node_0x7fffe887a950 islt_0x7fffe88be3a0)))
 (let (($x407 (= islt_0x7fffe88be3a0 (ite (bvslt (_ bv1 64) node_0x7fffe88b0af0) (_ bv1 1) (_ bv0 1)))))
 (let (($x51021 (= node_0x7fffe88b0af0 sext_0x7fffe88b0c90)))
 (let (($x375 (= sext_0x7fffe88b0c90 ((_ sign_extend 32) node_0x7fffe88aad80))))
 (let (($x50150 (= node_0x7fffe88aad80 udiv_0x7fffe88aaf20)))
 (let (($x32064 (= node_0x7fffe88aa8b0 LdMem_0x7fffe88a98e0)))
 (let (($x254 (= node_0x7fffe88aa8b0 (_ bv0 32))))
 (let (($x253 (= node_0x7fffe88a9f60 (_ bv0 32))))
 (let (($x255 (or $x253 $x254)))
 (let (($x252 (= udiv_0x7fffe88aaf20 (bvudiv node_0x7fffe88a9f60 node_0x7fffe88aa8b0))))
 (let (($x258 (and $x252 (or $x255 (and (distinct udiv_0x7fffe88aaf20 (_ bv0 32)) true)))))
 (let (($x51256 (= node_0x7fffe88a9f60 sub_0x7fffe88aa100)))
 (let (($x263 (= sub_0x7fffe88aa100 (bvsub node_0x7fffe88a9bb0 (_ bv1 32)))))
 (let (($x49928 (= node_0x7fffe88a9bb0 add_0x7fffe88a9d30)))
 (let (($x32068 (= node_0x7fffe88a9790 LdMem_0x7fffe88a98e0)))
 (let (($x269 (= add_0x7fffe88a9d30 (bvadd node_0x7fffe88a8e20 node_0x7fffe88a9790))))
 (let (($x32055 (= node_0x7fffe88a8e20 sub_0x7fffe88a8fa0)))
 (let (($x32067 (= node_0x7fffe88a89d0 LdMem_0x7fffe88a8b50)))
 (let (($x275 (= sub_0x7fffe88a8fa0 (bvsub node_0x7fffe88a8030 node_0x7fffe88a89d0))))
 (let (($x32058 (= node_0x7fffe88a8030 LdMem_0x7fffe889d280)))
 (let (($x32066 (= StMem_0x148192d0 parg_node_0x148193e0)))
 (let (($x32065 (= LdMem_0x7fffe889d280 StMem_0x148192d0)))
 (let (($x32039 (or $x1940 $x32065)))
 (and $x32039 $x32065 $x32066 $x32058 $x275 $x32067 $x32055 $x269 $x32068 $x49928 $x263 $x51256 $x258 $x32064 $x50150 $x375 $x51021 $x407 $x32060 $x32053 $x32040 $x32052 $x32112 $x228 $x32074 $x32094 $x222 $x51237 $x32061 $x216 $x32059 $x210 $x465 $x32056 $x390 $x32063 $x399 $x32116 $x32143 $x386 $x1822 $x371 $x1888 $x358 $x352 $x564 $x950 $x345 $x893 $x198 $x192 $x1774 $x246 $x1667 $x1762 $x181 $x174 $x1841 $x1900 $x1669 $x556 $x1939 $x929 $x1670 $x1693 $x961 $x1819 $x819 $x1680 $x19160 $x522 $x19152 $x1844 $x19197 $x1798 $x18509 $x658 $x19153 $x287 $x19323 $x666 $x299 $x19176 $x1862 $x1688))))))))))))))))))))))))))))))))))))))))))))))))))))))))))))))))))))))))))))))))))))))))))))))))))))))))))))))))))))))))))))))))))))
(assert
 (let (($x169 (= node_0x7fffe88706f0 (_ bv1 1))))
 (let (($x183 (not $x169)))
 (let (($x167 (= node_0x7fffe88717b0 (_ bv1 1))))
 (let (($x186 (and $x167 $x183)))
 (let (($x288 (= node_0x7fffe88723c0 (_ bv1 1))))
 (let (($x339 (and $x288 $x186)))
 (let (($x347 (and (not (= node_0x7fffe8873060 (_ bv1 1))) $x339)))
 (let (($x327 (= node_0x7fffe8873f10 (_ bv1 1))))
 (let (($x365 (and $x327 $x347)))
 (let (($x364 (= node_0x7fffe8874c30 (_ bv1 1))))
 (let (($x380 (and $x364 $x365)))
 (let (($x393 (or (and (not $x364) $x365) (and (not (= node_0x7fffe88786c0 (_ bv1 1))) $x380))))
 (let (($x401 (and (not (= node_0x7fffe887a950 (_ bv1 1))) $x393)))
 (let (($x359 (not $x327)))
 (let (($x360 (and $x359 $x347)))
 (let (($x402 (or (and (not $x167) $x183) $x360 $x401)))
 (let (($x296 (= node_0x7fffe8880c80 (_ bv1 1))))
 (and $x296 $x402)))))))))))))))))))
(assert
 (let (($x31986 (= node_0x7fffe88d5390 ine_0x7fffe88d5530)))
 (let (($x471 (= ine_0x7fffe88d5530 (ite (and (distinct node_0x7fffe88d4a80 (_ bv0 32)) true) (_ bv1 1) (_ bv0 1)))))
 (let (($x31987 (= node_0x7fffe88d4a80 udiv_0x7fffe88d4c20)))
 (let (($x32000 (= node_0x7fffe88d45b0 LdMem_0x7fffe88d35f0)))
 (let (($x479 (= node_0x7fffe88d45b0 (_ bv0 32))))
 (let (($x478 (= node_0x7fffe88d3c70 (_ bv0 32))))
 (let (($x480 (or $x478 $x479)))
 (let (($x477 (= udiv_0x7fffe88d4c20 (bvudiv node_0x7fffe88d3c70 node_0x7fffe88d45b0))))
 (let (($x483 (and $x477 (or $x480 (and (distinct udiv_0x7fffe88d4c20 (_ bv0 32)) true)))))
 (let (($x31988 (= node_0x7fffe88d3c70 sub_0x7fffe88d3e10)))
 (let (($x488 (= sub_0x7fffe88d3e10 (bvsub node_0x7fffe88d38c0 (_ bv1 32)))))
 (let (($x31989 (= node_0x7fffe88d38c0 add_0x7fffe88d3a40)))
 (let (($x31997 (= LdMem_0x7fffe88d35f0 StMem_0x1482f670)))
 (let (($x494 (= add_0x7fffe88d3a40 (bvadd node_0x7fffe88d2b50 node_0x7fffe88d3470))))
 (let (($x31990 (= node_0x7fffe88d2b50 sub_0x7fffe88d2cd0)))
 (let (($x500 (= sub_0x7fffe88d2cd0 (bvsub node_0x7fffe88d1d40 node_0x7fffe88d2700))))
 (let (($x31992 (= node_0x7fffe88d2700 LdMem_0x7fffe88d2880)))
 (let (($x31993 (= LdMem_0x7fffe88d2880 StMem_0x1482f1d0)))
 (let (($x414 (= and_0x7fffe88d5880 (bvand node_0x7fffe88d4ea0 node_0x7fffe88d5390))))
 (let (($x31971 (= node_0x7fffe88d4ea0 ine_0x7fffe88d5040)))
 (let (($x420 (= ine_0x7fffe88d5040 (ite (and (distinct node_0x7fffe88d0a10 (_ bv0 32)) true) (_ bv1 1) (_ bv0 1)))))
 (let (($x31972 (= node_0x7fffe88d0a10 udiv_0x7fffe88d0bb0)))
 (let (($x31985 (= node_0x7fffe88d0570 LdMem_0x7fffe88cf560)))
 (let (($x428 (= node_0x7fffe88d0570 (_ bv0 32))))
 (let (($x427 (= node_0x7fffe88cfbe0 (_ bv0 32))))
 (let (($x429 (or $x427 $x428)))
 (let (($x426 (= udiv_0x7fffe88d0bb0 (bvudiv node_0x7fffe88cfbe0 node_0x7fffe88d0570))))
 (let (($x432 (and $x426 (or $x429 (and (distinct udiv_0x7fffe88d0bb0 (_ bv0 32)) true)))))
 (let (($x31973 (= node_0x7fffe88cfbe0 sub_0x7fffe88cfd80)))
 (let (($x437 (= sub_0x7fffe88cfd80 (bvsub node_0x7fffe88cf830 (_ bv1 32)))))
 (let (($x31974 (= node_0x7fffe88cf830 add_0x7fffe88cf9b0)))
 (let (($x31982 (= LdMem_0x7fffe88cf560 StMem_0x1482ebe0)))
 (let (($x443 (= add_0x7fffe88cf9b0 (bvadd node_0x7fffe88ceac0 node_0x7fffe88cf3e0))))
 (let (($x31975 (= node_0x7fffe88ceac0 sub_0x7fffe88cec40)))
 (let (($x449 (= sub_0x7fffe88cec40 (bvsub node_0x7fffe88cdca0 node_0x7fffe88ce670))))
 (let (($x31977 (= node_0x7fffe88ce670 LdMem_0x7fffe88ce7f0)))
 (let (($x31978 (= LdMem_0x7fffe88ce7f0 StMem_0x1482e840)))
 (and (or (not (= R0x7fffe886ed60 (_ bv1 1))) $x31978) $x31978 (= StMem_0x1482e840 node_0xc332d70) $x31977 $x449 (= node_0x7fffe88cdca0 LdMem_0x7fffe889bdd0) $x31975 $x443 (or (not (= R0x7fffe886ed60 (_ bv1 1))) $x31982) $x31982 (= StMem_0x1482ebe0 node_0x1482ed20) (= node_0x7fffe88cf3e0 LdMem_0x7fffe88cf560) $x31974 $x437 $x31973 $x432 $x31985 $x31972 $x420 $x31971 $x414 (or (not (= R0x7fffe886ed60 (_ bv1 1))) $x31993) $x31993 (= StMem_0x1482f1d0 node_0x1482f310) $x31992 $x500 (= node_0x7fffe88d1d40 LdMem_0x7fffe889d280) $x31990 $x494 (or (not (= R0x7fffe886ed60 (_ bv1 1))) $x31997) $x31997 (= StMem_0x1482f670 node_0x1482f7b0) (= node_0x7fffe88d3470 LdMem_0x7fffe88d35f0) $x31989 $x488 $x31988 $x483 $x32000 $x31987 $x471 $x31986 (= node_0x7fffe8880c80 and_0x7fffe88d5880))))))))))))))))))))))))))))))))))))))))
(assert
 (= parg_node_0x147d8c00_CS0x399dec8 node_0x14835100))
(assert
 (let (($x50830 (= StMem_0x1482ce20 pcso_node_0x1482cc70)))
 (let (($x51389 (= StMem_0xc466810 parg_node_0x1481c8f0)))
 (let (($x49556 (= LdMem_0x14834d30 StMem_0x1482ce20)))
 (let (($x50868 (= LdMem_0x14834d30 StMem_0xc466810)))
 (let (($x49752 (= and_0xc4eae30 (bvand R0xc4e6850 R0x7fffe8871ce0))))
 (let (($x51064 (= R0xc4eaad0 and_0xc4eae30)))
 (let (($x50706 (= R0xc4eb560 and_0xc4eb8b0)))
 (let (($x49616 (= R0xc4eb0b0 xor_0xc4eb290)))
 (let (($x50130 (= xor_0xc4eb290 (bvxor R0x7fffe8871ce0 (_ bv1 1)))))
 (let (($x49781 (= R0x7fffe8871ce0 and_0x7fffe8872060)))
 (let (($x50020 (= and_0x7fffe8872060 (bvand R0x7fffe8870a70 R0x7fffe88719c0))))
 (let (($x50036 (= xor_0x7fffe8870c80 (bvxor node_0x7fffe88706f0 (_ bv1 1)))))
 (let (($x50806 (= R0x7fffe8870a70 xor_0x7fffe8870c80)))
 (let (($x50160 (= and_0xc4eb8b0 (bvand R0xc4e6850 R0xc4eb0b0))))
 (let (($x50674 (= R0xc4e6850 or_0xc4e6ad0)))
 (let (($x50048 (= xor_0x7fffe887e860 (bvxor node_0x7fffe88717b0 (_ bv1 1)))))
 (let (($x51204 (= R0x7fffe887e650 xor_0x7fffe887e860)))
 (let (($x49787 (= or_0xc4e6ad0 (bvor R0xc4e60c0 R0x7fffe887e650))))
 (let (($x49558 (= R0xc4e60c0 or_0xc4e6470)))
 (let ((?x49965 (bvor R0xc4e2fe0 R0xc4e5980)))
 (let (($x49770 (= or_0xc4e6470 ?x49965)))
 (let (($x49942 (= R0xc4e2fe0 and_0xc4e33b0)))
 (let (($x49996 (= xor_0x7fffe887ba30 (bvxor node_0x7fffe8873f10 (_ bv1 1)))))
 (let (($x51070 (= R0x7fffe887b820 xor_0x7fffe887ba30)))
 (let (($x49766 (= and_0xc4e33b0 (bvand R0xc4e2720 R0x7fffe887b820))))
 (let (($x51164 (= R0xc4e2720 and_0xc4e2ab0)))
 (let (($x49992 (= xor_0x7fffe8873480 (bvxor node_0x7fffe8873060 (_ bv1 1)))))
 (let (($x49702 (= R0x7fffe8873270 xor_0x7fffe8873480)))
 (let (($x49749 (= and_0xc4e2ab0 (bvand R0xc4e2150 R0x7fffe8873270))))
 (let (($x49915 (= R0xc4e2150 and_0xc4e2400)))
 (let (($x51199 (= R0x7fffe88725d0 node_0x7fffe88723c0)))
 (let (($x51341 (= R0x7fffe88719c0 node_0x7fffe88717b0)))
 (let (($x49745 (= and_0xc4e2400 (bvand R0x7fffe88719c0 R0x7fffe88725d0))))
 (let (($x51266 (= R0xc4e5980 and_0xc4e5db0)))
 (let (($x50044 (= xor_0x7fffe887c5e0 (bvxor node_0x7fffe887a950 (_ bv1 1)))))
 (let (($x50689 (= R0x7fffe887c3a0 xor_0x7fffe887c5e0)))
 (let (($x50002 (= and_0xc4e5db0 (bvand R0xc4e5240 R0x7fffe887c3a0))))
 (let (($x49258 (= R0xc4e5240 or_0xc4e5630)))
 (let (($x51062 (= R0xc4e4ae0 and_0xc4e4f30)))
 (let (($x50040 (= xor_0x7fffe88796c0 (bvxor node_0x7fffe88786c0 (_ bv1 1)))))
 (let (($x51286 (= R0x7fffe8879480 xor_0x7fffe88796c0)))
 (let (($x50030 (= and_0xc4e4f30 (bvand R0xc4e4440 R0x7fffe8879480))))
 (let (($x50700 (= R0xc4e4440 and_0xc4e4850)))
 (let (($x49954 (= R0x7fffe8874e30 node_0x7fffe8874c30)))
 (let (($x50035 (= and_0xc4e4850 (bvand R0xc4e36c0 R0x7fffe8874e30))))
 (let ((?x50007 (bvor R0xc4e3d20 R0xc4e4ae0)))
 (let (($x50008 (= or_0xc4e5630 ?x50007)))
 (let (($x49323 (= R0xc4e3d20 and_0xc4e4130)))
 (let (($x50024 (= xor_0x7fffe8878b20 (bvxor node_0x7fffe8874c30 (_ bv1 1)))))
 (let (($x50877 (= R0x7fffe8878910 xor_0x7fffe8878b20)))
 (let (($x50014 (= and_0xc4e4130 (bvand R0xc4e36c0 R0x7fffe8878910))))
 (let (($x49724 (= R0xc4e36c0 and_0xc4e3a90)))
 (let (($x50826 (= R0x7fffe8874110 node_0x7fffe8873f10)))
 (let (($x50019 (= and_0xc4e3a90 (bvand R0xc4e2720 R0x7fffe8874110))))
 (and $x50019 $x50826 $x49724 $x50014 $x50877 $x50024 $x49323 $x50008 $x50035 $x49954 $x50700 $x50030 $x51286 $x50040 $x51062 $x49258 $x50002 $x50689 $x50044 $x51266 $x49745 $x51341 $x51199 $x49915 $x49749 $x49702 $x49992 $x51164 $x49766 $x51070 $x49996 $x49942 $x49770 $x49558 $x49787 $x51204 $x50048 $x50674 $x50160 $x50806 $x50036 $x50020 $x49781 $x50130 $x49616 $x50706 (or (not (= R0xc4eb560 (_ bv1 1))) $x50868) (or (not (= R0xc4eaad0 (_ bv1 1))) $x49556) $x51064 $x49752 (or $x50868 $x49556) $x51389 $x50830 (= node_0x14835100 LdMem_0x14834d30)))))))))))))))))))))))))))))))))))))))))))))))))))))))))
(assert
 (= parg_node_0x147d6270_CS0x399dec8 node_0x14837df0))
(assert
 (let (($x51001 (= StMem_0x1481f6c0 parg_node_0x1481f830)))
 (let (($x51361 (= LdMem_0x14837a80 StMem_0x1481f6c0)))
 (and (or (not (= R0x7fffe886ed60 (_ bv1 1))) $x51361) $x51361 $x51001 (= node_0x14837df0 LdMem_0x14837a80)))))
(assert
 (= parg_node_0x147d5d10_CS0x399dec8 node_0x14836da0))
(assert
 (let (($x49577 (= StMem_0x1481e500 parg_node_0x1481e610)))
 (let (($x51207 (= LdMem_0x14836a30 StMem_0x1481e500)))
 (and (or (not (= R0xc4e6850 (_ bv1 1))) $x51207) $x51207 $x49577 (= node_0x14836da0 LdMem_0x14836a30)))))
(assert
 (= carg_node_0x7fffe88f5680_CS0x399dec8 carg_node_0x7fffe886f480))
(assert
 (= parg_node_0x147d4540_CS0x399dec8 node_0x14838a40))
(assert
 (let (($x51395 (= LdMem_0x148363b0 StMem_0x148192d0)))
 (and (or (not (= R0x7fffe886ed60 (_ bv1 1))) $x51395) $x51395 (= node_0x14838a40 LdMem_0x148363b0))))
(assert
 (= carg_node_0x7fffe88f5820_CS0x399dec8 node_0x7fffe88d0a10))
(assert
 (= parg_node_0x147d67d0_CS0x399dec8 node_0x14834b30))
(assert
 (let (($x50963 (= StMem_0x1482c9d0 pcso_node_0x1482c820)))
 (let (($x51360 (= StMem_0xc38b700 parg_node_0x1481c3b0)))
 (let (($x49703 (= LdMem_0x14834760 StMem_0x1482c9d0)))
 (let (($x49701 (= LdMem_0x14834760 StMem_0xc38b700)))
 (and (or (not (= R0xc4eb560 (_ bv1 1))) $x49701) (or (not (= R0xc4eaad0 (_ bv1 1))) $x49703) (or $x49701 $x49703) $x51360 $x50963 (= node_0x14834b30 LdMem_0x14834760)))))))
(assert
 (= parg_node_0x147d41a0_CS0x399dec8 node_0x14835c40))
(assert
 (let (($x49330 (= LdMem_0x148358d0 StMem_0x14819020)))
 (and (or (not (= R0x7fffe886ed60 (_ bv1 1))) $x49330) $x49330 (= node_0x14835c40 LdMem_0x148358d0))))
(assert
 (= parg_node_0x147d2d50_CS0x399dec8 node_0x148361b0))
(assert
 (let (($x50654 (= LdMem_0x14835e40 StMem_0x1481d840)))
 (and (or (not (= R0x7fffe886ed60 (_ bv1 1))) $x50654) $x50654 (= node_0x148361b0 LdMem_0x14835e40))))
(assert
 (= carg_node_0x7fffe88f5b00_CS0x399dec8 carg_node_0x7fffe886f620))
(assert
 (= carg_node_0x7fffe88f5480_CS0x399dec8 node_0x7fffe88cb620))
(assert
 (let (($x50167 (= sub_0x7fffe88c0de0 (bvsub carg_node_0x7fffe886f2d0 node_0x7fffe88ae910))))
 (let (($x51403 (= node_0x7fffe88c0c40 sub_0x7fffe88c0de0)))
 (let (($x50725 (= node_0x7fffe88cb620 carg_node_0x7fffe886f2d0)))
 (let (($x51020 (= node_0x7fffe88cb620 node_0x7fffe88c0c40)))
 (let (($x167 (= node_0x7fffe88717b0 (_ bv1 1))))
 (let (($x325 (not $x167)))
 (let (($x169 (= node_0x7fffe88706f0 (_ bv1 1))))
 (let (($x183 (not $x169)))
 (let (($x1696 (and $x183 $x325)))
 (let (($x1768 (not $x1696)))
 (let (($x186 (and $x167 $x183)))
 (let (($x288 (= node_0x7fffe88723c0 (_ bv1 1))))
 (let (($x339 (and $x288 $x186)))
 (let (($x347 (and (not (= node_0x7fffe8873060 (_ bv1 1))) $x339)))
 (let (($x327 (= node_0x7fffe8873f10 (_ bv1 1))))
 (let (($x365 (and $x327 $x347)))
 (let (($x364 (= node_0x7fffe8874c30 (_ bv1 1))))
 (let (($x380 (and $x364 $x365)))
 (let (($x393 (or (and (not $x364) $x365) (and (not (= node_0x7fffe88786c0 (_ bv1 1))) $x380))))
 (let (($x401 (and (not (= node_0x7fffe887a950 (_ bv1 1))) $x393)))
 (let (($x359 (not $x327)))
 (let (($x360 (and $x359 $x347)))
 (let (($x755 (or $x360 $x401)))
 (let (($x869 (not $x755)))
 (and (or $x869 $x51020) (or $x1768 $x50725) (or $x51020 $x50725) $x51403 $x50167))))))))))))))))))))))))))
(assert
 (= carg_node_0x7fffe88f5980_CS0x399dec8 node_0x7fffe88d4a80))
(assert
 (= carg_node_0x7fffe88f5320_CS0x399dec8 node_0x7fffe88cb8a0))
(assert
 (= node_0x7fffe88cb8a0 (_ bv0 64)))
(minimize carg_node_0x7fffe88f5320_CS0x399dec8)
(maximize node_0xc332d70)
(minimize xor_0x7fffe8870c80)
(maximize node_0x7fffe88d0570)
(maximize sext_0x7fffe88b08f0)
(minimize add_0x7fffe88a5cb0)
(maximize ine_0x7fffe88ab340)
(minimize carg_node_0x7fffe88f5480_CS0x399dec8)
(minimize node_0x7fffe88bfec0)
(minimize islt_0x7fffe88bdf80)
(minimize R0x7fffe8871ce0)
(minimize node_0x7fffe88d3470)
(minimize node_0x14836da0)
(minimize LdMem_0x14837a80)
(minimize node_0x7fffe88ad3a0)
(minimize R0xc4e2720)
(minimize StMem_0x1481f6c0)
(maximize add_0x7fffe88a9d30)
(maximize node_0x7fffe88b0050)
(maximize node_0x7fffe88d3470)
(maximize and_0xc4e5db0)
(maximize parg_node_0x147d41a0_CS0x399dec8)
(minimize node_0x1482f7b0)
(maximize node_0x7fffe88d0a10)
(maximize carg_node_0x7fffe88f5980_CS0x399dec8)
(minimize and_0xc4eae30)
(minimize node_0x7fffe88a5730)
(minimize node_0x7fffe88a3ec0)
(minimize node_0xc332d70)
(maximize node_0x14834b30)
(maximize node_0x7fffe88bfec0)
(minimize and_0xc4e4f30)
(maximize node_0x7fffe88a49c0)
(minimize xor_0x7fffe887ba30)
(minimize StMem_0x1482f670)
(maximize StMem_0xc38b700)
(maximize carg_node_0x7fffe88f5820_CS0x399dec8)
(maximize node_0x7fffe88a4e10)
(minimize R0xc4e60c0)
(minimize R0xc4e4ae0)
(maximize gep_0x7fffe88c08d0)
(minimize R0xc4eaad0)
(maximize islt_0x7fffe88bdf80)
(maximize R0x7fffe8878910)
(maximize and_0x7fffe88d5880)
(minimize node_0x7fffe88aad80)
(maximize xor_0x7fffe88b04f0)
(minimize node_0x7fffe8874c30)
(maximize node_0x7fffe88d4a80)
(minimize parg_node_0x147d4540_CS0x399dec8)
(maximize add_0x7fffe88d3a40)
(maximize node_0x7fffe88d5390)
(check-sat)
(get-objectives)
